p cnf 50 20
x -3 4 5 7 -9 11 16 17 19 21 -22 25 -27 -32 -33 -34 -35 -36 -37 38 -44 45 -46 47 0
x -1 -2 4 -7 -9 -10 11 -12 -13 -14 -19 22 24 25 26 27 -28 29 -32 33 -34 38 39 41 42 -44 -45 -47 -49 50 0
x -1 3 -10 11 -14 -16 -19 20 -21 22 23 -25 -26 28 29 30 -34 -35 -37 -40 -42 -44 -46 48 -50 0
x -1 -3 -5 7 -9 10 -14 -15 21 23 26 27 28 -30 -32 -34 -35 -36 -40 41 42 45 0
x 3 7 9 -10 -11 -12 14 16 -19 23 -24 -30 31 32 34 35 36 -37 -38 41 -43 -45 47 0
x -1 -2 6 -7 -8 -9 -10 12 -13 15 -17 18 20 -21 -24 -26 28 -29 30 31 -32 36 38 -39 40 -41 42 43 45 -46 -47 -48 50 0
x 3 -5 7 10 12 -13 16 -26 -27 -28 29 -33 34 -35 -37 -38 40 -41 -42 -44 45 46 47 48 49 50 0
x 1 2 -4 6 7 -11 12 -14 15 -16 19 -20 -23 24 25 -26 -30 36 37 -38 -39 41 43 45 47 -48 -49 0
x 1 -2 -5 6 8 10 11 -12 13 19 -20 26 27 28 -29 -32 36 -37 39 40 -43 -44 -47 -49 0
x -1 -2 -3 -4 -5 6 11 -12 -15 16 18 -19 -21 -24 25 26 27 -28 -29 -30 -31 -34 37 40 -41 -42 -47 49 -50 0
x -1 4 5 6 7 -10 12 -14 -15 16 -17 -18 19 20 -21 24 27 30 31 32 -34 36 38 40 -41 42 -43 -44 47 -48 0
x -1 4 -5 -6 9 -11 -12 17 -18 25 -30 -32 33 34 -35 36 38 39 40 42 46 -49 0
x -1 3 4 7 10 -11 -12 -13 -14 -15 -16 -17 18 -21 25 27 -31 34 -37 40 -41 -43 -45 -48 -49 50 0
x -2 4 6 -7 -8 -10 11 -13 16 -19 -22 23 25 -27 28 30 -31 33 -34 -38 -39 40 41 -43 -46 -47 -49 -50 0
x -1 2 3 -4 5 -6 -11 -12 -14 15 -16 -19 -20 21 22 23 26 -27 -29 -32 -33 -34 -36 -37 -40 -42 45 48 49 50 0
x -1 -4 7 -9 -15 18 -21 22 24 25 -26 -28 -30 -31 -35 -36 -41 -42 -44 -47 48 -49 -50 0
x 2 3 5 -6 9 -10 -14 16 -19 20 -26 27 -29 32 33 -36 -37 -38 40 -41 -42 44 -46 -49 -50 0
x 1 2 -3 4 -5 9 -10 -11 -13 -15 16 -17 20 -22 -26 28 -29 31 32 34 -35 39 41 44 -45 -47 -48 -49 50 0
x 2 -3 6 7 -8 9 10 11 -14 15 18 -19 20 22 -23 -26 27 28 -29 31 -32 33 34 -35 37 39 -40 -42 45 0
x 1 -6 8 -10 11 -12 17 20 -24 -25 -29 -31 32 -33 -34 -35 -37 -38 -39 40 41 42 43 -44 -46 -47 49 0
g -15